coords = array2d(1..36, 1..2, [806, 209, 737, 563, 956, 928, 245, 795, 323,
    661, 223, 348, 988, 660, 161, 876, 436, 280, 947, 620, 779, 42,
    69, 534, 335, 9, 520, 355, 56, 583, 725, 126, 949, 241, 555, 291,
    198, 344, 546, 402, 951, 244, 543, 129, 986, 110, 845, 181, 185,
    529, 844, 981, 665, 957, 311, 175, 65, 945, 217, 189, 165, 171,
    573, 31, 307, 267, 304, 166, 595, 412, 257, 86]);

n = 36;

